(set-logic UFDT)
(declare-datatypes ((nat 0)) (((zero) (s (s0 nat)))))
(define-fun-rec add
    ((x nat) (y nat)) nat
    (match x
        ((zero y)
        ((s x0) (s (add x0 y)))
    )))
(define-fun-rec leq
    ((x nat) (y nat)) Bool
    (match x
        ((zero true)
        ((s x0)
            (match y
                ((zero false)
                ((s y0) (leq x0 y0))
            )))
    )))
(assert (not (forall ((v0 nat) (v1 nat) (v2 nat) (v3 nat) (v4 nat)) (= (s (s (add (add (s v2) v3) (add (add (s (s v4)) zero) (add v1 (s v0)))))) (add (add (add (s (s (s zero))) (add (s (s v0)) v4)) (s (add v3 v2))) v1)))))
(check-sat)
